1179.0 13120.0 3032.0 
1179.0 13105.0 3087.0 
1179.0 13120.0 3032.0 
1143.0 13223.0 2949.0 
1212.0 13145.0 2991.0 
1179.0 13230.0 2885.0 
1186.0 12997.0 3338.0 
1198.0 13012.0 3040.0 
1256.0 13107.0 2900.0 
1247.0 13029.0 2905.0 
1228.0 13114.0 2924.0 
1232.0 13208.0 2741.0 
1163.0 13179.0 2999.0 
1142.0 13308.0 3034.0 
1203.0 13042.0 2995.0 
1138.0 13605.0 3272.0 
1184.0 13152.0 2853.0 
1270.0 13168.0 2701.0 
1138.0 13535.0 3296.0 
1226.0 13150.0 2776.0 
1179.0 13060.0 3128.0 
1192.0 13030.0 3058.0 
1186.0 13186.0 2833.0 
1196.0 13243.0 2779.0 
1160.0 13102.0 3343.0 
1198.0 13125.0 2999.0 
1203.0 12984.0 3033.0 
1244.0 13082.0 2958.0 
1179.0 13093.0 3127.0 
1198.0 13148.0 2934.0 
1169.0 13142.0 3128.0 
